########## Stress control NEB demo
########## yzhang951@gatech.edu
##################################################
#NEB: the atomic configurations and height of the energy barrier associated with a transition state


##########~~~~~~~~~~~~~~ Initialization
units	            metal
timestep          0.01
dimension         3
boundary          p p p
atom_style        atomic
atom_modify       map array sort 0 0 

variable          u equal part# number of replicas

##########~~~~~~~~~~~~~~ Read Data File
read_data         initial_neb.in

# target stress in MPa
variable        target_stress equal 0
variable        A_y  equal 8.399*71.3183
variable	      ratio equal 269.0740/112.355/10.0*(-1)

variable        p_xx equal pxx*${ratio}
variable        p_yy equal pyy*${ratio}
variable        p_zz equal pzz*${ratio}
variable        p_xy equal pxy*${ratio}
variable        p_yz equal pyz*${ratio}
variable        p_xz equal pxz*${ratio}

mass              1 92.91  # Nb
mass              2 95.94 # Mo
mass              3 180.9 # Ta
mass              4 183.8 # W

##########~~~~~~~~~~~~~~ EAM potential 
pair_style      mlip /work/home/fzhao/potentials/mlip.ini
pair_coeff      * *

region          top block EDGE EDGE 187 EDGE EDGE EDGE units box #default lattice
region          bot block EDGE EDGE EDGE 81 EDGE EDGE units box
group           fixtop region top
group           fixbot region bot
variable        num_top equal count(fixtop)
variable        num_bot equal count(fixbot)

if              "${num_top}!=${num_bot}" then &
                "print 'Unequal atom numbers of top and bottom layers!'" &
                "jump SELF break" 
group           inner subtract all fixtop fixbot
compute         1 inner centro/atom bcc
compute         2 inner property/atom z
variable        cx atom c_1*c_2
compute         3  inner reduce sum c_1
compute         4 inner reduce sum v_cx 
variable        position equal c_4/c_3

##########~~~~~~~~~~~~~~ Energy minimization 
thermo          100
thermo_style    custom step etotal pxx pyy pzz pxy pyz pxz v_p_xx v_p_yy v_p_zz v_p_xy v_p_yz v_p_xz v_position

##########~~~~~~~~~~~~~~ Read boundary condition
# Region, group

#variable        appforce_top equal ${target_stress}*${A_y}/${num_top}/(1.6e5)
#variable        appforce_bot equal ${target_stress}*${A_y}/${num_top}/(1.6e5)

#fix             1 fixtop addforce -${appforce_top} 0 0
#fix             2 fixbot addforce ${appforce_bot} 0 0
#fix_modify      1 energy yes
#fix_modify      2 energy yes


dump              1 all cfg 1000 alloy*_$u.cfg mass type xs ys zs
dump_modify       1 element Nb Mo Ta W sort id format float %20.15g

fix               3 all neb 1.0 # inter-replica nudging forces


min_style		      fire #minimization method
neb               1e-12 1e-3 10000 0 100 final final_neb.in   # etol ftol N1 N2 Nevery final config

label             break
# N1 and N2 must both be multiples of Nevery
# reaction coordinate RD: 
  #the cumulative distance (normalized by the total cumulative distance) 
  # between adjacent replicas, where “distance” is defined as the length of the 3N-vector of differences in atomic coordinates, 
  # where N is the number of NEB atoms involved in the transition.

